53 79
1 39
28 55
49 64
69 45
22 19
77 77
30 65
19 21
32 58
96 28
7 79
51 11
77 88
4 65
25 80
60 75
15 76
80 86
51 39
97 24
45 79
16 69
6 21
14 9
67 80
55 68
65 24
24 33
45 55
58 84
90 44
65 29
84 12
49 68
73 85
61 60
21 73
4 95
52 66
59 2
32 47
12 40
92 6
65 75
6 3
72 0
92 58
95 65
52 41
44 91
86 16
51 64
9 35
91 10
74 39
79 80
75 62
84 28
29 67
63 1
15 48
43 5
14 42
33 86
48 66
53 80
83 67
77 36
69 44
1 56
2 78
3 83
14 44
42 14
46 52
86 98
49 45
2 11
33 72
16 74
63 88
84 6
26 69
22 3
70 41
96 10
8 18
50 50
75 77
25 95
46 98
0 78
66 96
48 57
46 55
99 40
32 57
97 74
72 72
